NAME : A-n65-k9.728590.tour
COMMENT : Length = 728590
COMMENT : Found by LKH [Keld Helsgaun] Sun Dec 17 18:48:42 2017
TYPE : TOUR
DIMENSION : 73
TOUR_SECTION
1
6
46
61
51
17
42
3
71
18
52
40
8
12
64
55
49
58
68
30
19
20
25
53
9
11
41
73
56
26
57
45
60
67
50
5
31
38
36
37
4
69
44
16
28
15
23
10
72
63
29
24
34
2
13
14
66
22
54
33
21
59
62
43
39
70
48
35
32
27
7
65
47
-1
EOF
